20
2 1 4
4 3 1
6 5 2
7 4 80
7 6 12
8 0 17
8 1 47
8 2 64
9 0 36
10 3 68
11 2 62
12 3 49
12 4 36
12 5 37
12 6 69
13 0 65
13 2 16
13 4 15
13 7 71
13 10 63
14 0 8
14 3 69
14 7 18
14 9 64
14 10 74
15 1 73
15 6 79
15 8 65
15 9 15
15 10 68
15 11 3
15 12 3
16 0 53
16 5 25
16 8 44
16 12 69
17 9 3
17 12 27
18 2 17
18 8 8
18 11 25
18 13 60
18 14 68
19 2 11
19 5 42
19 10 72
19 12 17
19 14 34
19 18 73
